certificates/rado_a5_c204_N40.cnf
c Rad2 upper bound instance: x1 + 5*x2 - x3 = 204, interval [1,40]
p cnf 40 296
1 5 40 0
-1 -5 -40 0
2 6 40 0
-2 -6 -40 0
3 7 40 0
-3 -7 -40 0
4 8 40 0
-4 -8 -40 0
5 9 40 0
-5 -9 -40 0
1 10 39 0
-1 -10 -39 0
6 10 40 0
-6 -10 -40 0
2 11 39 0
-2 -11 -39 0
7 11 40 0
-7 -11 -40 0
3 12 39 0
-3 -12 -39 0
8 12 40 0
-8 -12 -40 0
4 13 39 0
-4 -13 -39 0
9 13 40 0
-9 -13 -40 0
5 14 39 0
-5 -14 -39 0
10 14 40 0
-10 -14 -40 0
1 15 38 0
-1 -15 -38 0
6 15 39 0
-6 -15 -39 0
11 15 40 0
-11 -15 -40 0
2 16 38 0
-2 -16 -38 0
7 16 39 0
-7 -16 -39 0
12 16 40 0
-12 -16 -40 0
3 17 38 0
-3 -17 -38 0
8 17 39 0
-8 -17 -39 0
13 17 40 0
-13 -17 -40 0
4 18 38 0
-4 -18 -38 0
9 18 39 0
-9 -18 -39 0
14 18 40 0
-14 -18 -40 0
5 19 38 0
-5 -19 -38 0
10 19 39 0
-10 -19 -39 0
15 19 40 0
-15 -19 -40 0
1 20 37 0
-1 -20 -37 0
6 20 38 0
-6 -20 -38 0
11 20 39 0
-11 -20 -39 0
16 20 40 0
-16 -20 -40 0
2 21 37 0
-2 -21 -37 0
7 21 38 0
-7 -21 -38 0
12 21 39 0
-12 -21 -39 0
17 21 40 0
-17 -21 -40 0
3 22 37 0
-3 -22 -37 0
8 22 38 0
-8 -22 -38 0
13 22 39 0
-13 -22 -39 0
18 22 40 0
-18 -22 -40 0
4 23 37 0
-4 -23 -37 0
9 23 38 0
-9 -23 -38 0
14 23 39 0
-14 -23 -39 0
19 23 40 0
-19 -23 -40 0
5 24 37 0
-5 -24 -37 0
10 24 38 0
-10 -24 -38 0
15 24 39 0
-15 -24 -39 0
20 24 40 0
-20 -24 -40 0
1 25 36 0
-1 -25 -36 0
6 25 37 0
-6 -25 -37 0
11 25 38 0
-11 -25 -38 0
16 25 39 0
-16 -25 -39 0
21 25 40 0
-21 -25 -40 0
2 26 36 0
-2 -26 -36 0
7 26 37 0
-7 -26 -37 0
12 26 38 0
-12 -26 -38 0
17 26 39 0
-17 -26 -39 0
22 26 40 0
-22 -26 -40 0
3 27 36 0
-3 -27 -36 0
8 27 37 0
-8 -27 -37 0
13 27 38 0
-13 -27 -38 0
18 27 39 0
-18 -27 -39 0
23 27 40 0
-23 -27 -40 0
4 28 36 0
-4 -28 -36 0
9 28 37 0
-9 -28 -37 0
14 28 38 0
-14 -28 -38 0
19 28 39 0
-19 -28 -39 0
24 28 40 0
-24 -28 -40 0
5 29 36 0
-5 -29 -36 0
10 29 37 0
-10 -29 -37 0
15 29 38 0
-15 -29 -38 0
20 29 39 0
-20 -29 -39 0
25 29 40 0
-25 -29 -40 0
1 30 35 0
-1 -30 -35 0
6 30 36 0
-6 -30 -36 0
11 30 37 0
-11 -30 -37 0
16 30 38 0
-16 -30 -38 0
21 30 39 0
-21 -30 -39 0
26 30 40 0
-26 -30 -40 0
2 31 35 0
-2 -31 -35 0
7 31 36 0
-7 -31 -36 0
12 31 37 0
-12 -31 -37 0
17 31 38 0
-17 -31 -38 0
22 31 39 0
-22 -31 -39 0
27 31 40 0
-27 -31 -40 0
3 32 35 0
-3 -32 -35 0
8 32 36 0
-8 -32 -36 0
13 32 37 0
-13 -32 -37 0
18 32 38 0
-18 -32 -38 0
23 32 39 0
-23 -32 -39 0
28 32 40 0
-28 -32 -40 0
4 33 35 0
-4 -33 -35 0
9 33 36 0
-9 -33 -36 0
14 33 37 0
-14 -33 -37 0
19 33 38 0
-19 -33 -38 0
24 33 39 0
-24 -33 -39 0
29 33 40 0
-29 -33 -40 0
5 34 35 0
-5 -34 -35 0
10 34 36 0
-10 -34 -36 0
15 34 37 0
-15 -34 -37 0
20 34 38 0
-20 -34 -38 0
25 34 39 0
-25 -34 -39 0
30 34 40 0
-30 -34 -40 0
1 34 35 0
-1 -34 -35 0
6 35 0
-6 -35 0
11 35 36 0
-11 -35 -36 0
16 35 37 0
-16 -35 -37 0
21 35 38 0
-21 -35 -38 0
26 35 39 0
-26 -35 -39 0
31 35 40 0
-31 -35 -40 0
2 34 36 0
-2 -34 -36 0
7 35 36 0
-7 -35 -36 0
12 36 0
-12 -36 0
17 36 37 0
-17 -36 -37 0
22 36 38 0
-22 -36 -38 0
27 36 39 0
-27 -36 -39 0
32 36 40 0
-32 -36 -40 0
3 34 37 0
-3 -34 -37 0
8 35 37 0
-8 -35 -37 0
13 36 37 0
-13 -36 -37 0
18 37 0
-18 -37 0
23 37 38 0
-23 -37 -38 0
28 37 39 0
-28 -37 -39 0
33 37 40 0
-33 -37 -40 0
4 34 38 0
-4 -34 -38 0
9 35 38 0
-9 -35 -38 0
14 36 38 0
-14 -36 -38 0
19 37 38 0
-19 -37 -38 0
24 38 0
-24 -38 0
29 38 39 0
-29 -38 -39 0
34 38 40 0
-34 -38 -40 0
5 34 39 0
-5 -34 -39 0
10 35 39 0
-10 -35 -39 0
15 36 39 0
-15 -36 -39 0
20 37 39 0
-20 -37 -39 0
25 38 39 0
-25 -38 -39 0
30 39 0
-30 -39 0
35 39 40 0
-35 -39 -40 0
1 33 40 0
-1 -33 -40 0
6 34 40 0
-6 -34 -40 0
11 35 40 0
-11 -35 -40 0
16 36 40 0
-16 -36 -40 0
21 37 40 0
-21 -37 -40 0
26 38 40 0
-26 -38 -40 0
31 39 40 0
-31 -39 -40 0
36 40 0
-36 -40 0
