certificates/rado_a5_c204_N40.drat
-39 -40 0
-40 0
36 0
-12 0
8 0
16 0
-32 0
28 0
-4 0
39 0
-30 0
-27 0
-15 0
-17 0
-7 0
-25 0
-19 0
-37 0
26 0
34 0
23 0
31 0
11 0
0
